6

0  6  7  5  0  4  
6  0  7  8  8  1  
7  7  0  4  1  7  
5  8  4  0  4  1  
0  8  1  4  0  3  
4  1  7  1  3  0  

0  9  3  9  8  3  
9  0  4  3  3  3  
3  4  0  6  3  6  
9  3  6  0  8  3  
8  3  3  8  0  3  
3  3  6  3  3  0  
